24
011110111101001111001111
101111011111110110111101
110000111111111110111110
110011110111100110011110
110101111111001110111110
010110111111001101111111
101111010111011101011111
111111100100111110111100
111011000101111111101100
111111111011111101001101
011111100101111011111011
111111101110110010111001
011100011111011011111111
011000111111101110110001
101011111110110010111111
111111111100010001111110
111110011011111000111111
100001101110100100010111
011011011011111110011101
011111110011111111101111
111111111111101110110111
111111111100101111111010
101111100010101111011100
110001100111111011111000
